p edge 644 2280
e 1 224
e 2 77
e 2 106
e 2 194
e 3 19
e 3 78
e 3 84
e 3 88
e 3 120
e 3 123
e 3 174
e 3 191
e 3 196
e 3 205
e 3 208
e 3 263
e 4 159
e 5 23
e 5 32
e 5 49
e 5 59
e 5 144
e 5 190
e 6 22
e 6 32
e 6 40
e 6 41
e 6 59
e 6 110
e 6 120
e 6 150
e 6 151
e 6 167
e 6 193
e 6 224
e 6 237
e 6 253
e 6 255
e 6 299
e 6 415
e 6 463
e 6 547
e 6 552
e 6 629
e 7 15
e 7 40
e 7 52
e 7 60
e 7 83
e 7 84
e 7 91
e 7 245
e 7 257
e 8 40
e 8 65
e 8 155
e 8 199
e 8 224
e 8 255
e 8 570
e 9 22
e 9 23
e 9 36
e 9 46
e 9 169
e 9 176
e 9 194
e 9 196
e 9 199
e 9 208
e 9 247
e 10 46
e 11 22
e 11 46
e 11 64
e 11 65
e 11 133
e 11 155
e 11 196
e 11 252
e 12 120
e 12 176
e 13 22
e 13 49
e 13 128
e 13 140
e 13 169
e 13 197
e 13 209
e 13 223
e 13 238
e 14 22
e 14 46
e 14 200
e 14 263
e 15 46
e 15 52
e 15 54
e 15 55
e 15 65
e 15 85
e 15 99
e 15 113
e 15 120
e 15 130
e 15 148
e 15 208
e 15 224
e 15 245
e 16 47
e 16 63
e 16 65
e 16 145
e 16 151
e 16 152
e 16 167
e 16 168
e 16 173
e 16 180
e 16 196
e 16 253
e 16 255
e 17 22
e 18 118
e 19 64
e 19 65
e 19 74
e 19 84
e 19 88
e 19 115
e 19 120
e 19 150
e 19 173
e 19 176
e 19 182
e 19 185
e 19 196
e 19 210
e 19 211
e 19 242
e 20 150
e 20 217
e 21 25
e 21 47
e 21 49
e 21 76
e 21 140
e 21 200
e 21 211
e 22 25
e 22 28
e 22 30
e 22 32
e 22 40
e 22 46
e 22 47
e 22 49
e 22 50
e 22 51
e 22 54
e 22 57
e 22 59
e 22 62
e 22 63
e 22 64
e 22 65
e 22 71
e 22 76
e 22 85
e 22 93
e 22 95
e 22 104
e 22 110
e 22 115
e 22 116
e 22 117
e 22 120
e 22 122
e 22 129
e 22 133
e 22 140
e 22 145
e 22 150
e 22 151
e 22 152
e 22 154
e 22 157
e 22 161
e 22 167
e 22 168
e 22 169
e 22 177
e 22 182
e 22 186
e 22 188
e 22 190
e 22 193
e 22 199
e 22 200
e 22 211
e 22 216
e 22 219
e 22 221
e 22 222
e 22 223
e 22 224
e 22 232
e 22 233
e 22 236
e 22 237
e 22 241
e 22 253
e 22 254
e 22 263
e 22 265
e 23 30
e 23 31
e 23 32
e 23 40
e 23 59
e 23 62
e 23 63
e 23 65
e 23 71
e 23 93
e 23 95
e 23 133
e 23 146
e 23 151
e 23 154
e 23 155
e 23 165
e 23 167
e 23 169
e 23 190
e 23 200
e 23 208
e 23 222
e 23 224
e 23 226
e 23 232
e 23 237
e 23 253
e 23 255
e 23 263
e 24 33
e 24 154
e 24 178
e 25 28
e 25 49
e 25 54
e 25 57
e 25 64
e 25 76
e 25 84
e 25 91
e 25 105
e 25 115
e 25 117
e 25 120
e 25 124
e 25 139
e 25 151
e 25 154
e 25 158
e 25 161
e 25 164
e 25 204
e 25 229
e 25 232
e 25 250
e 26 74
e 26 88
e 27 67
e 28 76
e 28 177
e 29 60
e 29 74
e 29 84
e 29 88
e 29 123
e 30 40
e 30 63
e 30 84
e 30 154
e 30 155
e 30 168
e 30 169
e 30 182
e 30 188
e 30 193
e 30 199
e 30 224
e 31 32
e 31 40
e 31 46
e 31 61
e 31 133
e 31 219
e 32 40
e 32 46
e 32 47
e 32 49
e 32 52
e 32 57
e 32 63
e 32 64
e 32 65
e 32 71
e 32 85
e 32 110
e 32 113
e 32 115
e 32 120
e 32 121
e 32 124
e 32 133
e 32 150
e 32 151
e 32 152
e 32 153
e 32 155
e 32 157
e 32 159
e 32 165
e 32 167
e 32 168
e 32 173
e 32 177
e 32 178
e 32 190
e 32 193
e 32 196
e 32 211
e 32 224
e 32 232
e 32 236
e 32 247
e 32 250
e 32 253
e 32 254
e 32 255
e 32 263
e 33 47
e 33 120
e 33 178
e 33 214
e 34 43
e 34 46
e 34 115
e 34 200
e 35 49
e 36 46
e 36 176
e 36 205
e 36 224
e 36 506
e 37 171
e 38 70
e 38 149
e 38 222
e 39 44
e 39 49
e 39 140
e 39 161
e 39 183
e 39 184
e 39 302
e 40 46
e 40 54
e 40 59
e 40 62
e 40 65
e 40 105
e 40 110
e 40 120
e 40 124
e 40 150
e 40 151
e 40 155
e 40 165
e 40 167
e 40 168
e 40 169
e 40 186
e 40 190
e 40 193
e 40 199
e 40 211
e 40 218
e 40 224
e 40 237
e 40 253
e 40 255
e 41 163
e 41 358
e 41 410
e 41 415
e 41 422
e 41 463
e 41 490
e 41 501
e 41 516
e 41 552
e 41 617
e 41 629
e 41 638
e 42 274
e 43 46
e 44 57
e 44 76
e 44 249
e 45 118
e 45 150
e 46 59
e 46 63
e 46 64
e 46 65
e 46 90
e 46 91
e 46 93
e 46 107
e 46 115
e 46 118
e 46 120
e 46 126
e 46 133
e 46 151
e 46 153
e 46 154
e 46 155
e 46 164
e 46 165
e 46 167
e 46 168
e 46 169
e 46 182
e 46 186
e 46 190
e 46 193
e 46 200
e 46 202
e 46 208
e 46 216
e 46 224
e 46 225
e 46 233
e 46 246
e 46 253
e 46 263
e 47 62
e 47 71
e 47 111
e 47 124
e 47 125
e 47 133
e 47 151
e 47 152
e 47 159
e 47 166
e 47 168
e 47 177
e 47 190
e 47 193
e 47 213
e 47 233
e 47 237
e 47 255
e 47 358
e 47 415
e 47 422
e 47 490
e 47 516
e 47 552
e 47 599
e 48 186
e 49 51
e 49 56
e 49 57
e 49 59
e 49 63
e 49 70
e 49 76
e 49 98
e 49 104
e 49 110
e 49 115
e 49 122
e 49 140
e 49 145
e 49 167
e 49 168
e 49 177
e 49 188
e 49 216
e 49 220
e 49 223
e 49 224
e 49 232
e 49 263
e 50 63
e 50 153
e 50 189
e 50 197
e 50 211
e 52 54
e 52 115
e 52 162
e 52 263
e 53 82
e 53 100
e 53 170
e 53 173
e 54 61
e 54 81
e 54 101
e 54 120
e 54 121
e 54 133
e 54 145
e 54 150
e 54 155
e 54 156
e 54 160
e 54 174
e 54 185
e 54 200
e 54 224
e 54 229
e 54 570
e 55 92
e 55 150
e 55 173
e 55 230
e 55 245
e 55 257
e 56 221
e 57 63
e 57 76
e 57 115
e 57 157
e 57 161
e 57 168
e 57 198
e 57 224
e 57 236
e 57 255
e 58 171
e 59 62
e 59 63
e 59 65
e 59 68
e 59 93
e 59 110
e 59 115
e 59 117
e 59 120
e 59 124
e 59 138
e 59 140
e 59 141
e 59 150
e 59 151
e 59 167
e 59 168
e 59 174
e 59 182
e 59 186
e 59 190
e 59 193
e 59 198
e 59 200
e 59 204
e 59 211
e 59 219
e 59 224
e 59 232
e 59 233
e 59 237
e 59 247
e 59 253
e 59 255
e 59 263
e 60 74
e 60 84
e 60 88
e 60 123
e 60 159
e 60 263
e 62 124
e 62 151
e 62 229
e 62 516
e 62 630
e 63 75
e 63 93
e 63 105
e 63 115
e 63 124
e 63 131
e 63 133
e 63 151
e 63 152
e 63 165
e 63 167
e 63 168
e 63 169
e 63 182
e 63 183
e 63 186
e 63 193
e 63 200
e 63 224
e 63 232
e 63 233
e 63 247
e 63 253
e 63 257
e 63 263
e 64 65
e 64 74
e 64 84
e 64 92
e 64 123
e 64 147
e 64 155
e 64 165
e 64 171
e 64 174
e 64 195
e 64 196
e 64 202
e 64 227
e 64 636
e 65 115
e 65 120
e 65 121
e 65 126
e 65 150
e 65 151
e 65 155
e 65 159
e 65 167
e 65 168
e 65 169
e 65 174
e 65 176
e 65 193
e 65 196
e 65 200
e 65 202
e 65 208
e 65 211
e 65 224
e 65 237
e 65 242
e 65 245
e 65 253
e 65 263
e 66 391
e 67 128
e 67 140
e 67 167
e 67 259
e 68 115
e 68 150
e 68 167
e 69 70
e 69 125
e 70 115
e 70 125
e 70 140
e 70 142
e 70 149
e 70 174
e 70 177
e 70 222
e 70 232
e 70 254
e 71 133
e 71 151
e 71 155
e 71 159
e 71 169
e 71 182
e 71 218
e 71 233
e 72 200
e 72 256
e 73 150
e 74 76
e 74 84
e 74 88
e 74 123
e 74 165
e 74 182
e 74 196
e 74 208
e 75 86
e 76 140
e 76 161
e 76 167
e 76 232
e 77 103
e 77 208
e 78 132
e 78 174
e 78 200
e 78 235
e 79 102
e 80 173
e 80 196
e 80 234
e 80 268
e 80 367
e 80 413
e 80 553
e 80 638
e 82 150
e 83 92
e 83 120
e 83 170
e 83 201
e 83 263
e 84 88
e 84 123
e 84 208
e 85 120
e 85 147
e 85 193
e 85 210
e 85 225
e 87 115
e 88 120
e 88 182
e 88 196
e 88 202
e 89 211
e 91 115
e 92 115
e 93 110
e 93 115
e 93 118
e 93 124
e 93 224
e 93 232
e 94 141
e 95 125
e 95 129
e 95 255
e 95 265
e 96 97
e 97 230
e 98 216
e 101 196
e 102 196
e 104 155
e 104 253
e 105 133
e 105 200
e 105 252
e 106 137
e 106 370
e 107 193
e 108 150
e 108 205
e 109 140
e 110 115
e 110 138
e 110 155
e 110 190
e 110 211
e 110 224
e 110 237
e 110 253
e 110 263
e 112 115
e 113 263
e 114 120
e 114 176
e 114 195
e 114 370
e 115 121
e 115 128
e 115 139
e 115 140
e 115 145
e 115 150
e 115 151
e 115 157
e 115 165
e 115 167
e 115 169
e 115 172
e 115 182
e 115 190
e 115 193
e 115 196
e 115 198
e 115 210
e 115 224
e 115 232
e 115 236
e 115 237
e 115 243
e 115 253
e 115 263
e 116 229
e 117 154
e 117 168
e 117 263
e 118 126
e 118 196
e 118 210
e 118 258
e 119 215
e 120 126
e 120 133
e 120 150
e 120 165
e 120 174
e 120 176
e 120 193
e 120 196
e 120 208
e 120 211
e 120 212
e 120 237
e 120 242
e 120 263
e 121 126
e 121 154
e 121 165
e 121 182
e 121 232
e 124 133
e 124 151
e 124 152
e 124 159
e 124 182
e 124 193
e 124 200
e 124 224
e 124 229
e 124 233
e 124 255
e 124 265
e 124 299
e 124 376
e 124 415
e 124 422
e 124 630
e 125 265
e 126 143
e 126 150
e 126 165
e 126 174
e 126 176
e 126 196
e 126 197
e 126 200
e 127 128
e 128 140
e 128 167
e 128 168
e 132 240
e 133 138
e 133 151
e 133 154
e 133 156
e 133 159
e 133 167
e 133 169
e 133 182
e 133 190
e 133 193
e 133 196
e 133 197
e 133 199
e 133 200
e 133 224
e 133 232
e 134 258
e 135 234
e 136 256
e 136 258
e 138 163
e 138 211
e 138 222
e 138 223
e 138 259
e 140 141
e 140 145
e 140 157
e 140 161
e 140 167
e 140 204
e 140 220
e 140 232
e 140 237
e 140 263
e 141 193
e 141 200
e 141 211
e 141 232
e 141 260
e 145 177
e 145 255
e 149 222
e 149 255
e 150 161
e 150 170
e 150 184
e 150 201
e 150 210
e 150 217
e 150 231
e 150 237
e 150 262
e 150 263
e 150 264
e 150 292
e 151 152
e 151 177
e 151 190
e 151 208
e 151 211
e 151 224
e 151 233
e 151 237
e 151 253
e 151 255
e 151 263
e 152 237
e 153 182
e 153 216
e 153 219
e 153 224
e 154 168
e 154 188
e 154 193
e 154 199
e 154 200
e 154 224
e 155 168
e 155 169
e 155 173
e 155 182
e 155 185
e 155 196
e 155 199
e 155 202
e 155 211
e 155 224
e 155 233
e 155 250
e 155 636
e 156 159
e 156 211
e 157 224
e 157 236
e 159 196
e 159 255
e 159 463
e 159 591
e 160 164
e 161 165
e 161 175
e 161 177
e 161 236
e 161 253
e 161 255
e 161 503
e 163 255
e 163 415
e 163 638
e 164 176
e 164 196
e 164 211
e 165 167
e 165 190
e 165 193
e 165 194
e 165 211
e 165 224
e 165 232
e 165 255
e 166 255
e 166 358
e 166 376
e 166 415
e 166 422
e 166 490
e 166 501
e 166 629
e 166 630
e 166 637
e 167 182
e 167 211
e 167 214
e 167 224
e 167 232
e 167 236
e 167 245
e 167 247
e 167 253
e 167 263
e 167 506
e 168 177
e 168 193
e 168 211
e 168 223
e 168 224
e 168 233
e 168 236
e 168 237
e 168 253
e 168 255
e 168 265
e 169 182
e 169 186
e 169 193
e 169 196
e 169 197
e 169 199
e 169 224
e 169 233
e 169 263
e 171 196
e 172 192
e 173 196
e 173 246
e 173 248
e 174 193
e 174 206
e 174 232
e 174 247
e 174 263
e 175 239
e 175 251
e 175 379
e 176 188
e 176 208
e 176 212
e 176 242
e 176 257
e 176 263
e 177 223
e 177 254
e 177 255
e 177 265
e 177 415
e 177 475
e 178 214
e 179 413
e 179 415
e 179 422
e 179 490
e 179 548
e 179 613
e 180 196
e 181 189
e 182 196
e 182 203
e 182 211
e 182 224
e 182 232
e 182 237
e 182 263
e 184 196
e 184 211
e 184 302
e 184 304
e 184 636
e 185 186
e 185 224
e 186 187
e 186 224
e 188 195
e 188 224
e 188 253
e 190 224
e 190 233
e 190 237
e 190 253
e 190 254
e 190 255
e 190 263
e 190 613
e 192 244
e 192 321
e 192 455
e 193 199
e 193 200
e 193 224
e 193 237
e 193 253
e 193 263
e 194 205
e 196 210
e 196 211
e 196 242
e 196 258
e 196 263
e 196 530
e 197 219
e 198 263
e 199 224
e 199 233
e 199 263
e 200 201
e 200 211
e 200 245
e 200 263
e 204 223
e 204 232
e 205 506
e 206 407
e 207 274
e 207 439
e 208 212
e 208 214
e 208 224
e 208 227
e 211 224
e 211 237
e 211 255
e 211 263
e 211 279
e 211 308
e 211 373
e 211 415
e 215 258
e 216 224
e 222 238
e 222 255
e 223 228
e 223 237
e 223 255
e 223 299
e 223 332
e 223 415
e 223 629
e 224 233
e 224 236
e 224 237
e 224 243
e 224 253
e 224 255
e 224 263
e 228 255
e 230 257
e 232 253
e 232 254
e 233 422
e 236 241
e 237 253
e 237 263
e 237 299
e 238 255
e 239 507
e 243 263
e 253 263
e 254 255
e 254 265
e 255 263
e 255 265
e 255 358
e 255 415
e 255 422
e 255 490
e 255 516
e 255 580
e 255 630
e 256 258
e 259 380
e 259 415
e 261 299
e 263 415
e 263 629
e 266 272
e 266 274
e 266 275
e 266 302
e 266 332
e 266 352
e 266 365
e 266 375
e 266 410
e 266 413
e 266 415
e 266 420
e 266 432
e 266 464
e 266 471
e 266 478
e 266 508
e 266 520
e 266 526
e 266 537
e 266 553
e 266 562
e 266 566
e 266 583
e 266 600
e 266 607
e 266 637
e 266 638
e 267 275
e 267 391
e 267 407
e 268 413
e 268 473
e 268 537
e 268 561
e 269 306
e 269 508
e 269 639
e 270 318
e 271 349
e 271 419
e 271 533
e 271 547
e 271 629
e 272 384
e 272 418
e 272 474
e 272 554
e 272 579
e 273 304
e 273 318
e 273 368
e 273 597
e 274 318
e 274 338
e 274 458
e 274 479
e 274 485
e 274 531
e 274 536
e 274 562
e 274 565
e 274 570
e 274 600
e 274 622
e 274 629
e 275 277
e 275 278
e 275 295
e 275 311
e 275 314
e 275 318
e 275 324
e 275 344
e 275 352
e 275 368
e 275 369
e 275 375
e 275 421
e 275 427
e 275 443
e 275 454
e 275 462
e 275 465
e 275 484
e 275 489
e 275 498
e 275 543
e 275 553
e 275 560
e 275 565
e 275 572
e 275 574
e 275 576
e 275 582
e 275 592
e 275 594
e 275 606
e 275 619
e 275 633
e 275 643
e 276 318
e 277 279
e 277 310
e 277 349
e 277 479
e 278 318
e 278 383
e 278 391
e 278 407
e 278 416
e 278 495
e 278 582
e 278 595
e 278 610
e 279 308
e 279 318
e 279 319
e 279 348
e 279 349
e 279 367
e 279 406
e 279 413
e 279 437
e 279 553
e 279 588
e 279 621
e 280 375
e 280 415
e 280 516
e 280 630
e 281 318
e 282 303
e 282 547
e 283 285
e 283 314
e 283 318
e 283 366
e 283 391
e 283 393
e 283 452
e 284 335
e 284 591
e 285 318
e 285 356
e 285 391
e 285 407
e 285 423
e 285 473
e 285 480
e 285 491
e 285 493
e 285 541
e 285 550
e 285 576
e 285 589
e 285 626
e 286 391
e 287 638
e 288 318
e 288 391
e 288 638
e 289 318
e 289 397
e 289 439
e 289 627
e 290 318
e 291 614
e 293 629
e 294 335
e 294 439
e 295 391
e 296 391
e 297 370
e 297 439
e 297 479
e 297 507
e 297 616
e 298 365
e 298 439
e 298 459
e 298 462
e 299 308
e 299 415
e 299 422
e 299 501
e 299 507
e 299 531
e 299 552
e 299 627
e 299 629
e 300 561
e 300 568
e 301 398
e 301 494
e 301 626
e 302 415
e 302 474
e 302 500
e 303 308
e 303 378
e 303 410
e 303 422
e 303 436
e 303 463
e 303 513
e 303 524
e 303 547
e 303 552
e 303 580
e 303 612
e 303 629
e 303 637
e 304 318
e 305 318
e 306 508
e 307 521
e 307 629
e 308 349
e 308 373
e 308 383
e 308 415
e 308 471
e 308 474
e 308 501
e 308 516
e 308 549
e 308 629
e 309 327
e 309 357
e 309 410
e 309 415
e 309 439
e 309 531
e 309 617
e 309 639
e 310 591
e 311 356
e 311 439
e 311 578
e 312 318
e 313 383
e 313 439
e 314 318
e 314 383
e 314 391
e 314 397
e 314 454
e 314 480
e 314 495
e 314 576
e 315 340
e 315 345
e 315 383
e 315 391
e 315 404
e 315 507
e 315 642
e 316 391
e 317 318
e 318 319
e 318 320
e 318 326
e 318 327
e 318 328
e 318 330
e 318 331
e 318 334
e 318 337
e 318 341
e 318 342
e 318 344
e 318 346
e 318 352
e 318 357
e 318 359
e 318 360
e 318 361
e 318 362
e 318 366
e 318 368
e 318 374
e 318 375
e 318 379
e 318 381
e 318 382
e 318 383
e 318 384
e 318 387
e 318 388
e 318 389
e 318 394
e 318 395
e 318 396
e 318 400
e 318 403
e 318 406
e 318 426
e 318 427
e 318 428
e 318 429
e 318 431
e 318 433
e 318 434
e 318 435
e 318 439
e 318 440
e 318 442
e 318 443
e 318 444
e 318 446
e 318 448
e 318 450
e 318 451
e 318 452
e 318 453
e 318 454
e 318 456
e 318 457
e 318 460
e 318 461
e 318 462
e 318 465
e 318 466
e 318 467
e 318 468
e 318 470
e 318 473
e 318 476
e 318 478
e 318 481
e 318 483
e 318 485
e 318 487
e 318 488
e 318 489
e 318 491
e 318 492
e 318 494
e 318 495
e 318 496
e 318 497
e 318 498
e 318 502
e 318 504
e 318 505
e 318 507
e 318 508
e 318 509
e 318 511
e 318 521
e 318 523
e 318 528
e 318 529
e 318 534
e 318 537
e 318 538
e 318 539
e 318 540
e 318 543
e 318 550
e 318 551
e 318 553
e 318 554
e 318 556
e 318 558
e 318 559
e 318 561
e 318 563
e 318 564
e 318 565
e 318 566
e 318 568
e 318 570
e 318 571
e 318 573
e 318 574
e 318 575
e 318 581
e 318 582
e 318 584
e 318 587
e 318 593
e 318 594
e 318 595
e 318 597
e 318 600
e 318 601
e 318 602
e 318 605
e 318 606
e 318 607
e 318 608
e 318 610
e 318 611
e 318 614
e 318 618
e 318 619
e 318 620
e 318 627
e 318 631
e 318 632
e 318 633
e 318 639
e 318 640
e 318 641
e 318 643
e 319 345
e 319 349
e 319 359
e 319 368
e 319 375
e 319 410
e 319 415
e 319 431
e 319 463
e 319 487
e 319 490
e 319 632
e 320 383
e 320 439
e 320 616
e 322 444
e 323 592
e 324 335
e 324 391
e 324 407
e 324 410
e 325 383
e 326 423
e 327 386
e 327 410
e 327 415
e 327 439
e 327 464
e 327 513
e 327 629
e 328 375
e 328 379
e 328 383
e 328 420
e 328 468
e 328 476
e 328 497
e 328 507
e 328 531
e 328 550
e 328 565
e 328 627
e 329 407
e 330 423
e 331 410
e 331 415
e 331 490
e 332 415
e 332 464
e 332 473
e 332 638
e 333 570
e 335 345
e 335 362
e 335 364
e 335 370
e 335 385
e 335 407
e 335 417
e 335 419
e 335 445
e 335 468
e 335 469
e 335 494
e 335 501
e 335 513
e 335 529
e 335 546
e 335 571
e 335 612
e 335 629
e 335 637
e 335 638
e 336 391
e 336 407
e 337 383
e 337 410
e 337 578
e 338 508
e 338 531
e 339 391
e 339 397
e 339 438
e 339 530
e 340 351
e 340 383
e 340 391
e 340 417
e 340 474
e 340 603
e 341 391
e 341 395
e 341 445
e 341 464
e 343 391
e 343 407
e 343 480
e 343 638
e 344 391
e 344 397
e 344 439
e 344 479
e 344 595
e 345 383
e 345 391
e 347 507
e 349 415
e 349 479
e 349 490
e 349 547
e 349 637
e 350 639
e 351 356
e 351 367
e 351 368
e 351 473
e 351 561
e 351 582
e 352 391
e 352 473
e 353 407
e 353 410
e 353 439
e 353 444
e 353 530
e 353 572
e 354 559
e 355 413
e 356 368
e 356 383
e 356 407
e 356 480
e 357 375
e 357 383
e 357 384
e 357 410
e 357 415
e 357 437
e 357 474
e 357 507
e 358 376
e 358 410
e 358 415
e 358 422
e 358 490
e 358 501
e 358 547
e 358 629
e 358 630
e 359 512
e 360 410
e 360 630
e 362 419
e 362 591
e 363 530
e 364 391
e 364 407
e 364 639
e 365 419
e 365 599
e 366 391
e 367 439
e 367 473
e 367 561
e 368 391
e 368 407
e 369 407
e 369 457
e 370 385
e 370 416
e 370 436
e 370 439
e 370 444
e 370 474
e 370 479
e 370 529
e 370 552
e 370 616
e 371 407
e 372 558
e 373 415
e 373 490
e 374 451
e 375 391
e 375 416
e 375 439
e 375 473
e 375 490
e 375 495
e 375 565
e 376 415
e 376 422
e 376 552
e 376 613
e 376 629
e 376 630
e 376 638
e 377 570
e 378 415
e 378 479
e 379 410
e 379 476
e 379 495
e 379 508
e 379 566
e 379 627
e 380 490
e 380 629
e 380 638
e 381 479
e 383 384
e 383 386
e 383 404
e 383 410
e 383 411
e 383 437
e 383 439
e 383 450
e 383 467
e 383 478
e 383 487
e 383 497
e 383 499
e 383 507
e 383 514
e 383 516
e 383 517
e 383 531
e 383 532
e 383 535
e 383 565
e 383 566
e 383 569
e 383 570
e 383 574
e 383 578
e 383 595
e 383 597
e 383 608
e 383 611
e 383 624
e 383 638
e 384 391
e 384 439
e 384 474
e 384 500
e 384 553
e 384 578
e 385 612
e 386 410
e 386 415
e 386 513
e 386 516
e 386 612
e 387 391
e 387 611
e 389 547
e 389 629
e 390 391
e 391 395
e 391 400
e 391 404
e 391 406
e 391 408
e 391 412
e 391 416
e 391 424
e 391 430
e 391 433
e 391 435
e 391 439
e 391 441
e 391 442
e 391 443
e 391 444
e 391 449
e 391 450
e 391 451
e 391 462
e 391 466
e 391 478
e 391 479
e 391 486
e 391 491
e 391 494
e 391 495
e 391 499
e 391 502
e 391 504
e 391 512
e 391 528
e 391 532
e 391 534
e 391 540
e 391 542
e 391 545
e 391 548
e 391 550
e 391 551
e 391 559
e 391 561
e 391 565
e 391 567
e 391 569
e 391 576
e 391 583
e 391 584
e 391 594
e 391 606
e 391 610
e 391 618
e 391 619
e 391 623
e 391 633
e 391 634
e 391 635
e 391 642
e 391 643
e 392 413
e 392 568
e 393 642
e 396 439
e 396 586
e 397 565
e 398 410
e 398 482
e 399 415
e 401 445
e 402 561
e 402 638
e 405 479
e 405 582
e 407 421
e 407 423
e 407 435
e 407 468
e 407 476
e 407 480
e 407 486
e 407 491
e 407 494
e 407 514
e 407 529
e 407 550
e 407 556
e 407 594
e 407 596
e 407 643
e 408 479
e 409 415
e 409 423
e 409 479
e 409 501
e 409 549
e 409 552
e 409 629
e 410 415
e 410 439
e 410 441
e 410 445
e 410 464
e 410 467
e 410 469
e 410 487
e 410 490
e 410 492
e 410 500
e 410 501
e 410 508
e 410 513
e 410 516
e 410 526
e 410 527
e 410 531
e 410 547
e 410 562
e 410 566
e 410 578
e 410 580
e 410 608
e 410 629
e 410 639
e 412 415
e 412 479
e 413 439
e 413 464
e 413 473
e 413 482
e 413 490
e 413 526
e 413 553
e 413 621
e 413 638
e 414 447
e 414 469
e 414 639
e 415 419
e 415 422
e 415 439
e 415 463
e 415 464
e 415 469
e 415 471
e 415 475
e 415 479
e 415 500
e 415 501
e 415 513
e 415 516
e 415 531
e 415 547
e 415 552
e 415 557
e 415 612
e 415 617
e 415 629
e 415 630
e 415 637
e 416 417
e 416 473
e 416 507
e 417 431
e 417 473
e 417 553
e 417 597
e 417 605
e 418 476
e 418 589
e 419 445
e 419 469
e 419 547
e 419 612
e 419 617
e 419 629
e 419 637
e 422 490
e 422 501
e 422 507
e 422 516
e 422 552
e 422 613
e 422 629
e 422 630
e 423 468
e 423 593
e 423 620
e 425 445
e 428 597
e 431 473
e 431 490
e 431 507
e 431 570
e 431 638
e 435 476
e 435 500
e 437 439
e 437 471
e 437 490
e 437 497
e 437 553
e 437 621
e 437 638
e 439 459
e 439 462
e 439 464
e 439 471
e 439 479
e 439 492
e 439 508
e 439 512
e 439 547
e 439 549
e 439 562
e 439 566
e 439 570
e 439 574
e 439 578
e 439 586
e 439 595
e 439 615
e 439 616
e 439 627
e 439 629
e 439 634
e 439 638
e 439 639
e 441 479
e 441 595
e 441 637
e 442 595
e 444 500
e 444 545
e 445 479
e 445 501
e 445 513
e 445 525
e 445 612
e 445 617
e 446 497
e 451 457
e 451 480
e 454 465
e 454 495
e 456 476
e 456 608
e 457 466
e 457 514
e 457 554
e 457 555
e 457 561
e 459 462
e 460 473
e 460 572
e 462 473
e 462 474
e 462 621
e 463 500
e 463 501
e 463 547
e 463 613
e 463 629
e 464 473
e 464 475
e 464 513
e 464 523
e 464 547
e 464 604
e 464 621
e 464 638
e 464 639
e 465 582
e 467 609
e 467 625
e 468 476
e 468 632
e 470 543
e 471 638
e 472 595
e 473 490
e 473 495
e 473 553
e 473 556
e 473 561
e 473 603
e 473 621
e 473 638
e 474 530
e 474 582
e 474 611
e 474 615
e 474 638
e 475 630
e 476 495
e 476 500
e 476 507
e 476 510
e 476 512
e 476 550
e 476 566
e 476 627
e 477 579
e 479 482
e 479 495
e 479 501
e 479 548
e 479 552
e 479 590
e 479 607
e 479 629
e 484 537
e 484 553
e 487 512
e 490 501
e 490 507
e 490 516
e 490 531
e 490 565
e 490 570
e 490 580
e 490 586
e 490 591
e 490 629
e 490 637
e 490 638
e 495 496
e 495 566
e 495 595
e 495 600
e 496 501
e 496 508
e 496 627
e 496 638
e 499 512
e 499 595
e 500 501
e 500 508
e 500 525
e 500 585
e 500 612
e 500 628
e 500 638
e 501 516
e 501 531
e 501 552
e 501 580
e 501 599
e 501 612
e 501 627
e 501 629
e 501 630
e 505 550
e 505 614
e 507 514
e 507 516
e 507 559
e 507 580
e 507 591
e 507 605
e 507 611
e 507 629
e 507 638
e 508 513
e 508 577
e 508 627
e 509 598
e 509 634
e 512 545
e 513 527
e 513 547
e 513 612
e 514 523
e 514 530
e 514 559
e 514 597
e 514 638
e 515 549
e 516 570
e 516 580
e 516 629
e 516 630
e 516 638
e 518 592
e 519 570
e 522 553
e 523 549
e 524 552
e 529 597
e 531 549
e 531 580
e 531 627
e 536 544
e 537 553
e 537 561
e 547 580
e 547 629
e 552 613
e 552 629
e 552 637
e 552 638
e 553 561
e 553 597
e 553 621
e 553 638
e 556 638
e 559 627
e 562 600
e 565 597
e 565 638
e 570 599
e 570 630
e 571 634
e 572 592
e 574 616
e 577 627
e 582 588
e 582 600
e 585 625
e 586 638
e 591 637
e 595 626
e 597 605
e 599 630
e 605 620
e 609 625
e 611 638
e 612 613
e 612 629
e 614 638
e 615 638
e 618 638
e 621 638
e 627 638
e 628 638
